90 362876
31 86 55 43 21 75 39 26 88 58 23 48 13 49 72 15 44 25 69 85 81 3 29 66 8 64 24 27 56 28 11 59 42 12 45 1 61 76 6 73 16 36 79 10 4 40 89 47 54 83 57 67 20 82 19 78 17 37 5 30 2 14 32 9 90 87 53 60 41 71 18 33 22 52 70 46 77 74 38 34 50 68 51 63 62 65 7 84 80 35 
